37 69
43 67
62 63
63 69
52 64
57 58
52 41
61 33
58 27
51 21
59 15
46 10
39 10
36 16
30 15
21 10
13 13
5 6
10 17
5 25
7 38
8 52
5 64
17 63
27 68
31 62
42 57
49 49
58 48
62 42
56 37
52 33
48 28
45 35
40 30
31 32
20 26
27 23
32 22
25 32
17 33
12 42
21 47
16 57
25 55
30 48
30 40
32 39
42 41
38 46
37 52
37 69
